Maximize
  18 x0_0_ + 18 x0_1_ + 18 x0_2_ + 18 x0_3_ + 18 x0_4_ + 18 x0_5_ + 14 x0_6_
   + 4 x0_7_ + 4 x0_8_ + 4 x0_9_ + 216 x1_7_ + 216 x1_8_ + 216 x1_9_
   + 85 x2_7_ + 85 x2_8_ + 85 x2_9_ + 144 x3_7_ + 144 x3_8_ + 144 x3_9_
   + 27 x4_0_ + 27 x4_1_ + 27 x4_2_ + 27 x4_3_ + 27 x4_4_ + 27 x4_5_
   + 21 x4_6_ + 6 x4_7_ + 6 x4_8_ + 6 x4_9_ + 27 x5_0_ + 27 x5_1_
   + 27 x5_2_ + 27 x5_3_ + 27 x5_4_ + 27 x5_5_ + 21 x5_6_ + 6 x5_7_
   + 6 x5_8_ + 6 x5_9_ + 36 x6_0_ + 36 x6_1_ + 36 x6_2_ + 36 x6_3_
   + 36 x6_4_ + 36 x6_5_ + 28 x6_6_ + 8 x6_7_ + 8 x6_8_ + 8 x6_9_
   + 288 x7_7_ + 288 x7_8_ + 288 x7_9_ + 72 x8_7_ + 72 x8_8_ + 72 x8_9_
   + 18 x9_0_ + 18 x9_1_ + 18 x9_2_ + 18 x9_3_ + 18 x9_4_ + 18 x9_5_
   + 14 x9_6_ + 4 x9_7_ + 4 x9_8_ + 4 x9_9_ + 51 x10_7_ + 51 x10_8_
   + 51 x10_9_ + 36 x11_0_ + 36 x11_1_ + 36 x11_2_ + 36 x11_3_ + 36 x11_4_
   + 36 x11_5_ + 28 x11_6_ + 8 x11_7_ + 8 x11_8_ + 8 x11_9_ + 144 x12_7_
   + 144 x12_8_ + 144 x12_9_ + 288 x13_7_ + 288 x13_8_ + 288 x13_9_
   + 36 x14_0_ + 36 x14_1_ + 36 x14_2_ + 36 x14_3_ + 36 x14_4_ + 36 x14_5_
   + 28 x14_6_ + 8 x14_7_ + 8 x14_8_ + 8 x14_9_ + 288 x15_7_ + 288 x15_8_
   + 288 x15_9_ + 17 x16_7_ + 17 x16_8_ + 17 x16_9_ + 9 x17_0_ + 9 x17_1_
   + 9 x17_2_ + 9 x17_3_ + 9 x17_4_ + 9 x17_5_ + 7 x17_6_ + 2 x17_7_
   + 2 x17_8_ + 2 x17_9_ + 288 x18_7_ + 288 x18_8_ + 288 x18_9_ + 72 x19_7_
   + 72 x19_8_ + 72 x19_9_
Subject To
 R0: x0_0_ + x0_1_ + x0_2_ + x0_3_ + x0_4_ + x0_5_ + x0_6_ + x0_7_ + x0_8_
   + x0_9_ + x0_n_ = 1
 R1: x1_6_ + x1_7_ + x1_8_ + x1_9_ + x1_n_ = 1
 R2: x2_7_ + x2_8_ + x2_9_ + x2_n_ = 1
 R3: x3_6_ + x3_7_ + x3_8_ + x3_9_ + x3_n_ = 1
 R4: x4_0_ + x4_1_ + x4_2_ + x4_3_ + x4_4_ + x4_5_ + x4_6_ + x4_7_ + x4_8_
   + x4_9_ + x4_n_ = 1
 R5: x5_0_ + x5_1_ + x5_2_ + x5_3_ + x5_4_ + x5_5_ + x5_6_ + x5_7_ + x5_8_
   + x5_9_ + x5_n_ = 1
 R6: x6_0_ + x6_1_ + x6_2_ + x6_3_ + x6_4_ + x6_5_ + x6_6_ + x6_7_ + x6_8_
   + x6_9_ + x6_n_ = 1
 R7: x7_6_ + x7_7_ + x7_8_ + x7_9_ + x7_n_ = 1
 R8: x8_6_ + x8_7_ + x8_8_ + x8_9_ + x8_n_ = 1
 R9: x9_0_ + x9_1_ + x9_2_ + x9_3_ + x9_4_ + x9_5_ + x9_6_ + x9_7_ + x9_8_
   + x9_9_ + x9_n_ = 1
 R10: x10_7_ + x10_8_ + x10_9_ + x10_n_ = 1
 R11: x11_0_ + x11_1_ + x11_2_ + x11_3_ + x11_4_ + x11_5_ + x11_6_ + x11_7_
   + x11_8_ + x11_9_ + x11_n_ = 1
 R12: x12_6_ + x12_7_ + x12_8_ + x12_9_ + x12_n_ = 1
 R13: x13_6_ + x13_7_ + x13_8_ + x13_9_ + x13_n_ = 1
 R14: x14_0_ + x14_1_ + x14_2_ + x14_3_ + x14_4_ + x14_5_ + x14_6_ + x14_7_
   + x14_8_ + x14_9_ + x14_n_ = 1
 R15: x15_6_ + x15_7_ + x15_8_ + x15_9_ + x15_n_ = 1
 R16: x16_7_ + x16_8_ + x16_9_ + x16_n_ = 1
 R17: x17_0_ + x17_1_ + x17_2_ + x17_3_ + x17_4_ + x17_5_ + x17_6_ + x17_7_
   + x17_8_ + x17_9_ + x17_n_ = 1
 R18: x18_6_ + x18_7_ + x18_8_ + x18_9_ + x18_n_ = 1
 R19: x19_6_ + x19_7_ + x19_8_ + x19_9_ + x19_n_ = 1
 R20: x0_0_ + x6_0_ <= 1
 R21: x0_1_ + x6_1_ <= 1
 R22: x0_2_ + x6_2_ <= 1
 R23: x0_3_ + x6_3_ <= 1
 R24: x0_4_ + x6_4_ <= 1
 R25: x0_5_ + x6_5_ <= 1
 R26: x0_6_ + x6_6_ <= 1
 R27: x0_7_ + x6_7_ <= 1
 R28: x0_8_ + x6_8_ <= 1
 R29: x0_9_ + x6_9_ <= 1
 R30: x0_0_ + x11_0_ <= 1
 R31: x0_1_ + x11_1_ <= 1
 R32: x0_2_ + x11_2_ <= 1
 R33: x0_3_ + x11_3_ <= 1
 R34: x0_4_ + x11_4_ <= 1
 R35: x0_5_ + x11_5_ <= 1
 R36: x0_6_ + x11_6_ <= 1
 R37: x0_7_ + x11_7_ <= 1
 R38: x0_8_ + x11_8_ <= 1
 R39: x0_9_ + x11_9_ <= 1
 R40: x0_0_ + x14_0_ <= 1
 R41: x0_1_ + x14_1_ <= 1
 R42: x0_2_ + x14_2_ <= 1
 R43: x0_3_ + x14_3_ <= 1
 R44: x0_4_ + x14_4_ <= 1
 R45: x0_5_ + x14_5_ <= 1
 R46: x0_6_ + x14_6_ <= 1
 R47: x0_7_ + x14_7_ <= 1
 R48: x0_8_ + x14_8_ <= 1
 R49: x0_9_ + x14_9_ <= 1
 R50: x1_6_ + x4_6_ <= 1
 R51: x1_7_ + x4_7_ <= 1
 R52: x1_8_ + x4_8_ <= 1
 R53: x1_9_ + x4_9_ <= 1
 R54: x1_6_ + x5_6_ <= 1
 R55: x1_7_ + x5_7_ <= 1
 R56: x1_8_ + x5_8_ <= 1
 R57: x1_9_ + x5_9_ <= 1
 R58: x1_6_ + x7_6_ <= 1
 R59: x1_7_ + x7_7_ <= 1
 R60: x1_8_ + x7_8_ <= 1
 R61: x1_9_ + x7_9_ <= 1
 R62: x1_6_ + x8_6_ <= 1
 R63: x1_7_ + x8_7_ <= 1
 R64: x1_8_ + x8_8_ <= 1
 R65: x1_9_ + x8_9_ <= 1
 R66: x1_6_ + x9_6_ <= 1
 R67: x1_7_ + x9_7_ <= 1
 R68: x1_8_ + x9_8_ <= 1
 R69: x1_9_ + x9_9_ <= 1
 R70: x1_6_ + x11_6_ <= 1
 R71: x1_7_ + x11_7_ <= 1
 R72: x1_8_ + x11_8_ <= 1
 R73: x1_9_ + x11_9_ <= 1
 R74: x1_6_ + x15_6_ <= 1
 R75: x1_7_ + x15_7_ <= 1
 R76: x1_8_ + x15_8_ <= 1
 R77: x1_9_ + x15_9_ <= 1
 R78: x1_6_ + x17_6_ <= 1
 R79: x1_7_ + x17_7_ <= 1
 R80: x1_8_ + x17_8_ <= 1
 R81: x1_9_ + x17_9_ <= 1
 R82: x1_6_ + x18_6_ <= 1
 R83: x1_7_ + x18_7_ <= 1
 R84: x1_8_ + x18_8_ <= 1
 R85: x1_9_ + x18_9_ <= 1
 R86: x1_7_ + x2_7_ <= 1
 R87: x1_8_ + x2_8_ <= 1
 R88: x1_9_ + x2_9_ <= 1
 R89: x2_7_ + x3_7_ <= 1
 R90: x2_8_ + x3_8_ <= 1
 R91: x2_9_ + x3_9_ <= 1
 R92: x2_7_ + x4_7_ <= 1
 R93: x2_8_ + x4_8_ <= 1
 R94: x2_9_ + x4_9_ <= 1
 R95: x2_7_ + x5_7_ <= 1
 R96: x2_8_ + x5_8_ <= 1
 R97: x2_9_ + x5_9_ <= 1
 R98: x2_7_ + x7_7_ <= 1
 R99: x2_8_ + x7_8_ <= 1
 R100: x2_9_ + x7_9_ <= 1
 R101: x2_7_ + x8_7_ <= 1
 R102: x2_8_ + x8_8_ <= 1
 R103: x2_9_ + x8_9_ <= 1
 R104: x2_7_ + x9_7_ <= 1
 R105: x2_8_ + x9_8_ <= 1
 R106: x2_9_ + x9_9_ <= 1
 R107: x2_7_ + x10_7_ <= 1
 R108: x2_8_ + x10_8_ <= 1
 R109: x2_9_ + x10_9_ <= 1
 R110: x2_7_ + x11_7_ <= 1
 R111: x2_8_ + x11_8_ <= 1
 R112: x2_9_ + x11_9_ <= 1
 R113: x2_7_ + x15_7_ <= 1
 R114: x2_8_ + x15_8_ <= 1
 R115: x2_9_ + x15_9_ <= 1
 R116: x2_7_ + x17_7_ <= 1
 R117: x2_8_ + x17_8_ <= 1
 R118: x2_9_ + x17_9_ <= 1
 R119: x2_7_ + x18_7_ <= 1
 R120: x2_8_ + x18_8_ <= 1
 R121: x2_9_ + x18_9_ <= 1
 R122: x3_6_ + x6_6_ <= 1
 R123: x3_7_ + x6_7_ <= 1
 R124: x3_8_ + x6_8_ <= 1
 R125: x3_9_ + x6_9_ <= 1
 R126: x3_6_ + x11_6_ <= 1
 R127: x3_7_ + x11_7_ <= 1
 R128: x3_8_ + x11_8_ <= 1
 R129: x3_9_ + x11_9_ <= 1
 R130: x3_6_ + x13_6_ <= 1
 R131: x3_7_ + x13_7_ <= 1
 R132: x3_8_ + x13_8_ <= 1
 R133: x3_9_ + x13_9_ <= 1
 R134: x3_6_ + x18_6_ <= 1
 R135: x3_7_ + x18_7_ <= 1
 R136: x3_8_ + x18_8_ <= 1
 R137: x3_9_ + x18_9_ <= 1
 R138: x4_0_ + x5_0_ <= 1
 R139: x4_1_ + x5_1_ <= 1
 R140: x4_2_ + x5_2_ <= 1
 R141: x4_3_ + x5_3_ <= 1
 R142: x4_4_ + x5_4_ <= 1
 R143: x4_5_ + x5_5_ <= 1
 R144: x4_6_ + x5_6_ <= 1
 R145: x4_7_ + x5_7_ <= 1
 R146: x4_8_ + x5_8_ <= 1
 R147: x4_9_ + x5_9_ <= 1
 R148: x4_0_ + x9_0_ <= 1
 R149: x4_1_ + x9_1_ <= 1
 R150: x4_2_ + x9_2_ <= 1
 R151: x4_3_ + x9_3_ <= 1
 R152: x4_4_ + x9_4_ <= 1
 R153: x4_5_ + x9_5_ <= 1
 R154: x4_6_ + x9_6_ <= 1
 R155: x4_7_ + x9_7_ <= 1
 R156: x4_8_ + x9_8_ <= 1
 R157: x4_9_ + x9_9_ <= 1
 R158: x4_0_ + x17_0_ <= 1
 R159: x4_1_ + x17_1_ <= 1
 R160: x4_2_ + x17_2_ <= 1
 R161: x4_3_ + x17_3_ <= 1
 R162: x4_4_ + x17_4_ <= 1
 R163: x4_5_ + x17_5_ <= 1
 R164: x4_6_ + x17_6_ <= 1
 R165: x4_7_ + x17_7_ <= 1
 R166: x4_8_ + x17_8_ <= 1
 R167: x4_9_ + x17_9_ <= 1
 R168: x4_0_ + x5_0_ <= 1
 R169: x4_1_ + x5_1_ <= 1
 R170: x4_2_ + x5_2_ <= 1
 R171: x4_3_ + x5_3_ <= 1
 R172: x4_4_ + x5_4_ <= 1
 R173: x4_5_ + x5_5_ <= 1
 R174: x4_6_ + x5_6_ <= 1
 R175: x4_7_ + x5_7_ <= 1
 R176: x4_8_ + x5_8_ <= 1
 R177: x4_9_ + x5_9_ <= 1
 R178: x5_0_ + x9_0_ <= 1
 R179: x5_1_ + x9_1_ <= 1
 R180: x5_2_ + x9_2_ <= 1
 R181: x5_3_ + x9_3_ <= 1
 R182: x5_4_ + x9_4_ <= 1
 R183: x5_5_ + x9_5_ <= 1
 R184: x5_6_ + x9_6_ <= 1
 R185: x5_7_ + x9_7_ <= 1
 R186: x5_8_ + x9_8_ <= 1
 R187: x5_9_ + x9_9_ <= 1
 R188: x5_0_ + x11_0_ <= 1
 R189: x5_1_ + x11_1_ <= 1
 R190: x5_2_ + x11_2_ <= 1
 R191: x5_3_ + x11_3_ <= 1
 R192: x5_4_ + x11_4_ <= 1
 R193: x5_5_ + x11_5_ <= 1
 R194: x5_6_ + x11_6_ <= 1
 R195: x5_7_ + x11_7_ <= 1
 R196: x5_8_ + x11_8_ <= 1
 R197: x5_9_ + x11_9_ <= 1
 R198: x5_0_ + x17_0_ <= 1
 R199: x5_1_ + x17_1_ <= 1
 R200: x5_2_ + x17_2_ <= 1
 R201: x5_3_ + x17_3_ <= 1
 R202: x5_4_ + x17_4_ <= 1
 R203: x5_5_ + x17_5_ <= 1
 R204: x5_6_ + x17_6_ <= 1
 R205: x5_7_ + x17_7_ <= 1
 R206: x5_8_ + x17_8_ <= 1
 R207: x5_9_ + x17_9_ <= 1
 R208: x0_0_ + x6_0_ <= 1
 R209: x0_1_ + x6_1_ <= 1
 R210: x0_2_ + x6_2_ <= 1
 R211: x0_3_ + x6_3_ <= 1
 R212: x0_4_ + x6_4_ <= 1
 R213: x0_5_ + x6_5_ <= 1
 R214: x0_6_ + x6_6_ <= 1
 R215: x0_7_ + x6_7_ <= 1
 R216: x0_8_ + x6_8_ <= 1
 R217: x0_9_ + x6_9_ <= 1
 R218: x6_0_ + x11_0_ <= 1
 R219: x6_1_ + x11_1_ <= 1
 R220: x6_2_ + x11_2_ <= 1
 R221: x6_3_ + x11_3_ <= 1
 R222: x6_4_ + x11_4_ <= 1
 R223: x6_5_ + x11_5_ <= 1
 R224: x6_6_ + x11_6_ <= 1
 R225: x6_7_ + x11_7_ <= 1
 R226: x6_8_ + x11_8_ <= 1
 R227: x6_9_ + x11_9_ <= 1
 R228: x6_0_ + x14_0_ <= 1
 R229: x6_1_ + x14_1_ <= 1
 R230: x6_2_ + x14_2_ <= 1
 R231: x6_3_ + x14_3_ <= 1
 R232: x6_4_ + x14_4_ <= 1
 R233: x6_5_ + x14_5_ <= 1
 R234: x6_6_ + x14_6_ <= 1
 R235: x6_7_ + x14_7_ <= 1
 R236: x6_8_ + x14_8_ <= 1
 R237: x6_9_ + x14_9_ <= 1
 R238: x1_6_ + x7_6_ <= 1
 R239: x1_7_ + x7_7_ <= 1
 R240: x1_8_ + x7_8_ <= 1
 R241: x1_9_ + x7_9_ <= 1
 R242: x4_6_ + x7_6_ <= 1
 R243: x4_7_ + x7_7_ <= 1
 R244: x4_8_ + x7_8_ <= 1
 R245: x4_9_ + x7_9_ <= 1
 R246: x5_6_ + x7_6_ <= 1
 R247: x5_7_ + x7_7_ <= 1
 R248: x5_8_ + x7_8_ <= 1
 R249: x5_9_ + x7_9_ <= 1
 R250: x7_6_ + x8_6_ <= 1
 R251: x7_7_ + x8_7_ <= 1
 R252: x7_8_ + x8_8_ <= 1
 R253: x7_9_ + x8_9_ <= 1
 R254: x7_6_ + x9_6_ <= 1
 R255: x7_7_ + x9_7_ <= 1
 R256: x7_8_ + x9_8_ <= 1
 R257: x7_9_ + x9_9_ <= 1
 R258: x7_6_ + x11_6_ <= 1
 R259: x7_7_ + x11_7_ <= 1
 R260: x7_8_ + x11_8_ <= 1
 R261: x7_9_ + x11_9_ <= 1
 R262: x7_6_ + x15_6_ <= 1
 R263: x7_7_ + x15_7_ <= 1
 R264: x7_8_ + x15_8_ <= 1
 R265: x7_9_ + x15_9_ <= 1
 R266: x7_6_ + x17_6_ <= 1
 R267: x7_7_ + x17_7_ <= 1
 R268: x7_8_ + x17_8_ <= 1
 R269: x7_9_ + x17_9_ <= 1
 R270: x7_6_ + x18_6_ <= 1
 R271: x7_7_ + x18_7_ <= 1
 R272: x7_8_ + x18_8_ <= 1
 R273: x7_9_ + x18_9_ <= 1
 R274: x1_6_ + x8_6_ <= 1
 R275: x1_7_ + x8_7_ <= 1
 R276: x1_8_ + x8_8_ <= 1
 R277: x1_9_ + x8_9_ <= 1
 R278: x4_6_ + x8_6_ <= 1
 R279: x4_7_ + x8_7_ <= 1
 R280: x4_8_ + x8_8_ <= 1
 R281: x4_9_ + x8_9_ <= 1
 R282: x5_6_ + x8_6_ <= 1
 R283: x5_7_ + x8_7_ <= 1
 R284: x5_8_ + x8_8_ <= 1
 R285: x5_9_ + x8_9_ <= 1
 R286: x7_6_ + x8_6_ <= 1
 R287: x7_7_ + x8_7_ <= 1
 R288: x7_8_ + x8_8_ <= 1
 R289: x7_9_ + x8_9_ <= 1
 R290: x8_6_ + x9_6_ <= 1
 R291: x8_7_ + x9_7_ <= 1
 R292: x8_8_ + x9_8_ <= 1
 R293: x8_9_ + x9_9_ <= 1
 R294: x8_6_ + x15_6_ <= 1
 R295: x8_7_ + x15_7_ <= 1
 R296: x8_8_ + x15_8_ <= 1
 R297: x8_9_ + x15_9_ <= 1
 R298: x8_6_ + x17_6_ <= 1
 R299: x8_7_ + x17_7_ <= 1
 R300: x8_8_ + x17_8_ <= 1
 R301: x8_9_ + x17_9_ <= 1
 R302: x4_0_ + x9_0_ <= 1
 R303: x4_1_ + x9_1_ <= 1
 R304: x4_2_ + x9_2_ <= 1
 R305: x4_3_ + x9_3_ <= 1
 R306: x4_4_ + x9_4_ <= 1
 R307: x4_5_ + x9_5_ <= 1
 R308: x4_6_ + x9_6_ <= 1
 R309: x4_7_ + x9_7_ <= 1
 R310: x4_8_ + x9_8_ <= 1
 R311: x4_9_ + x9_9_ <= 1
 R312: x5_0_ + x9_0_ <= 1
 R313: x5_1_ + x9_1_ <= 1
 R314: x5_2_ + x9_2_ <= 1
 R315: x5_3_ + x9_3_ <= 1
 R316: x5_4_ + x9_4_ <= 1
 R317: x5_5_ + x9_5_ <= 1
 R318: x5_6_ + x9_6_ <= 1
 R319: x5_7_ + x9_7_ <= 1
 R320: x5_8_ + x9_8_ <= 1
 R321: x5_9_ + x9_9_ <= 1
 R322: x9_0_ + x11_0_ <= 1
 R323: x9_1_ + x11_1_ <= 1
 R324: x9_2_ + x11_2_ <= 1
 R325: x9_3_ + x11_3_ <= 1
 R326: x9_4_ + x11_4_ <= 1
 R327: x9_5_ + x11_5_ <= 1
 R328: x9_6_ + x11_6_ <= 1
 R329: x9_7_ + x11_7_ <= 1
 R330: x9_8_ + x11_8_ <= 1
 R331: x9_9_ + x11_9_ <= 1
 R332: x9_0_ + x17_0_ <= 1
 R333: x9_1_ + x17_1_ <= 1
 R334: x9_2_ + x17_2_ <= 1
 R335: x9_3_ + x17_3_ <= 1
 R336: x9_4_ + x17_4_ <= 1
 R337: x9_5_ + x17_5_ <= 1
 R338: x9_6_ + x17_6_ <= 1
 R339: x9_7_ + x17_7_ <= 1
 R340: x9_8_ + x17_8_ <= 1
 R341: x9_9_ + x17_9_ <= 1
 R342: x1_7_ + x10_7_ <= 1
 R343: x1_8_ + x10_8_ <= 1
 R344: x1_9_ + x10_9_ <= 1
 R345: x2_7_ + x10_7_ <= 1
 R346: x2_8_ + x10_8_ <= 1
 R347: x2_9_ + x10_9_ <= 1
 R348: x3_7_ + x10_7_ <= 1
 R349: x3_8_ + x10_8_ <= 1
 R350: x3_9_ + x10_9_ <= 1
 R351: x5_7_ + x10_7_ <= 1
 R352: x5_8_ + x10_8_ <= 1
 R353: x5_9_ + x10_9_ <= 1
 R354: x6_7_ + x10_7_ <= 1
 R355: x6_8_ + x10_8_ <= 1
 R356: x6_9_ + x10_9_ <= 1
 R357: x7_7_ + x10_7_ <= 1
 R358: x7_8_ + x10_8_ <= 1
 R359: x7_9_ + x10_9_ <= 1
 R360: x9_7_ + x10_7_ <= 1
 R361: x9_8_ + x10_8_ <= 1
 R362: x9_9_ + x10_9_ <= 1
 R363: x10_7_ + x11_7_ <= 1
 R364: x10_8_ + x11_8_ <= 1
 R365: x10_9_ + x11_9_ <= 1
 R366: x10_7_ + x13_7_ <= 1
 R367: x10_8_ + x13_8_ <= 1
 R368: x10_9_ + x13_9_ <= 1
 R369: x10_7_ + x15_7_ <= 1
 R370: x10_8_ + x15_8_ <= 1
 R371: x10_9_ + x15_9_ <= 1
 R372: x10_7_ + x18_7_ <= 1
 R373: x10_8_ + x18_8_ <= 1
 R374: x10_9_ + x18_9_ <= 1
 R375: x0_0_ + x11_0_ <= 1
 R376: x0_1_ + x11_1_ <= 1
 R377: x0_2_ + x11_2_ <= 1
 R378: x0_3_ + x11_3_ <= 1
 R379: x0_4_ + x11_4_ <= 1
 R380: x0_5_ + x11_5_ <= 1
 R381: x0_6_ + x11_6_ <= 1
 R382: x0_7_ + x11_7_ <= 1
 R383: x0_8_ + x11_8_ <= 1
 R384: x0_9_ + x11_9_ <= 1
 R385: x5_0_ + x11_0_ <= 1
 R386: x5_1_ + x11_1_ <= 1
 R387: x5_2_ + x11_2_ <= 1
 R388: x5_3_ + x11_3_ <= 1
 R389: x5_4_ + x11_4_ <= 1
 R390: x5_5_ + x11_5_ <= 1
 R391: x5_6_ + x11_6_ <= 1
 R392: x5_7_ + x11_7_ <= 1
 R393: x5_8_ + x11_8_ <= 1
 R394: x5_9_ + x11_9_ <= 1
 R395: x6_0_ + x11_0_ <= 1
 R396: x6_1_ + x11_1_ <= 1
 R397: x6_2_ + x11_2_ <= 1
 R398: x6_3_ + x11_3_ <= 1
 R399: x6_4_ + x11_4_ <= 1
 R400: x6_5_ + x11_5_ <= 1
 R401: x6_6_ + x11_6_ <= 1
 R402: x6_7_ + x11_7_ <= 1
 R403: x6_8_ + x11_8_ <= 1
 R404: x6_9_ + x11_9_ <= 1
 R405: x9_0_ + x11_0_ <= 1
 R406: x9_1_ + x11_1_ <= 1
 R407: x9_2_ + x11_2_ <= 1
 R408: x9_3_ + x11_3_ <= 1
 R409: x9_4_ + x11_4_ <= 1
 R410: x9_5_ + x11_5_ <= 1
 R411: x9_6_ + x11_6_ <= 1
 R412: x9_7_ + x11_7_ <= 1
 R413: x9_8_ + x11_8_ <= 1
 R414: x9_9_ + x11_9_ <= 1
 R415: x12_6_ + x14_6_ <= 1
 R416: x12_7_ + x14_7_ <= 1
 R417: x12_8_ + x14_8_ <= 1
 R418: x12_9_ + x14_9_ <= 1
 R419: x0_6_ + x13_6_ <= 1
 R420: x0_7_ + x13_7_ <= 1
 R421: x0_8_ + x13_8_ <= 1
 R422: x0_9_ + x13_9_ <= 1
 R423: x3_6_ + x13_6_ <= 1
 R424: x3_7_ + x13_7_ <= 1
 R425: x3_8_ + x13_8_ <= 1
 R426: x3_9_ + x13_9_ <= 1
 R427: x6_6_ + x13_6_ <= 1
 R428: x6_7_ + x13_7_ <= 1
 R429: x6_8_ + x13_8_ <= 1
 R430: x6_9_ + x13_9_ <= 1
 R431: x11_6_ + x13_6_ <= 1
 R432: x11_7_ + x13_7_ <= 1
 R433: x11_8_ + x13_8_ <= 1
 R434: x11_9_ + x13_9_ <= 1
 R435: x13_6_ + x14_6_ <= 1
 R436: x13_7_ + x14_7_ <= 1
 R437: x13_8_ + x14_8_ <= 1
 R438: x13_9_ + x14_9_ <= 1
 R439: x13_6_ + x18_6_ <= 1
 R440: x13_7_ + x18_7_ <= 1
 R441: x13_8_ + x18_8_ <= 1
 R442: x13_9_ + x18_9_ <= 1
 R443: x13_6_ + x19_6_ <= 1
 R444: x13_7_ + x19_7_ <= 1
 R445: x13_8_ + x19_8_ <= 1
 R446: x13_9_ + x19_9_ <= 1
 R447: x0_0_ + x14_0_ <= 1
 R448: x0_1_ + x14_1_ <= 1
 R449: x0_2_ + x14_2_ <= 1
 R450: x0_3_ + x14_3_ <= 1
 R451: x0_4_ + x14_4_ <= 1
 R452: x0_5_ + x14_5_ <= 1
 R453: x0_6_ + x14_6_ <= 1
 R454: x0_7_ + x14_7_ <= 1
 R455: x0_8_ + x14_8_ <= 1
 R456: x0_9_ + x14_9_ <= 1
 R457: x6_0_ + x14_0_ <= 1
 R458: x6_1_ + x14_1_ <= 1
 R459: x6_2_ + x14_2_ <= 1
 R460: x6_3_ + x14_3_ <= 1
 R461: x6_4_ + x14_4_ <= 1
 R462: x6_5_ + x14_5_ <= 1
 R463: x6_6_ + x14_6_ <= 1
 R464: x6_7_ + x14_7_ <= 1
 R465: x6_8_ + x14_8_ <= 1
 R466: x6_9_ + x14_9_ <= 1
 R467: x1_6_ + x15_6_ <= 1
 R468: x1_7_ + x15_7_ <= 1
 R469: x1_8_ + x15_8_ <= 1
 R470: x1_9_ + x15_9_ <= 1
 R471: x4_6_ + x15_6_ <= 1
 R472: x4_7_ + x15_7_ <= 1
 R473: x4_8_ + x15_8_ <= 1
 R474: x4_9_ + x15_9_ <= 1
 R475: x5_6_ + x15_6_ <= 1
 R476: x5_7_ + x15_7_ <= 1
 R477: x5_8_ + x15_8_ <= 1
 R478: x5_9_ + x15_9_ <= 1
 R479: x7_6_ + x15_6_ <= 1
 R480: x7_7_ + x15_7_ <= 1
 R481: x7_8_ + x15_8_ <= 1
 R482: x7_9_ + x15_9_ <= 1
 R483: x8_6_ + x15_6_ <= 1
 R484: x8_7_ + x15_7_ <= 1
 R485: x8_8_ + x15_8_ <= 1
 R486: x8_9_ + x15_9_ <= 1
 R487: x9_6_ + x15_6_ <= 1
 R488: x9_7_ + x15_7_ <= 1
 R489: x9_8_ + x15_8_ <= 1
 R490: x9_9_ + x15_9_ <= 1
 R491: x11_6_ + x15_6_ <= 1
 R492: x11_7_ + x15_7_ <= 1
 R493: x11_8_ + x15_8_ <= 1
 R494: x11_9_ + x15_9_ <= 1
 R495: x15_6_ + x17_6_ <= 1
 R496: x15_7_ + x17_7_ <= 1
 R497: x15_8_ + x17_8_ <= 1
 R498: x15_9_ + x17_9_ <= 1
 R499: x15_6_ + x18_6_ <= 1
 R500: x15_7_ + x18_7_ <= 1
 R501: x15_8_ + x18_8_ <= 1
 R502: x15_9_ + x18_9_ <= 1
 R503: x0_7_ + x16_7_ <= 1
 R504: x0_8_ + x16_8_ <= 1
 R505: x0_9_ + x16_9_ <= 1
 R506: x6_7_ + x16_7_ <= 1
 R507: x6_8_ + x16_8_ <= 1
 R508: x6_9_ + x16_9_ <= 1
 R509: x11_7_ + x16_7_ <= 1
 R510: x11_8_ + x16_8_ <= 1
 R511: x11_9_ + x16_9_ <= 1
 R512: x13_7_ + x16_7_ <= 1
 R513: x13_8_ + x16_8_ <= 1
 R514: x13_9_ + x16_9_ <= 1
 R515: x16_7_ + x18_7_ <= 1
 R516: x16_8_ + x18_8_ <= 1
 R517: x16_9_ + x18_9_ <= 1
 R518: x4_0_ + x17_0_ <= 1
 R519: x4_1_ + x17_1_ <= 1
 R520: x4_2_ + x17_2_ <= 1
 R521: x4_3_ + x17_3_ <= 1
 R522: x4_4_ + x17_4_ <= 1
 R523: x4_5_ + x17_5_ <= 1
 R524: x4_6_ + x17_6_ <= 1
 R525: x4_7_ + x17_7_ <= 1
 R526: x4_8_ + x17_8_ <= 1
 R527: x4_9_ + x17_9_ <= 1
 R528: x5_0_ + x17_0_ <= 1
 R529: x5_1_ + x17_1_ <= 1
 R530: x5_2_ + x17_2_ <= 1
 R531: x5_3_ + x17_3_ <= 1
 R532: x5_4_ + x17_4_ <= 1
 R533: x5_5_ + x17_5_ <= 1
 R534: x5_6_ + x17_6_ <= 1
 R535: x5_7_ + x17_7_ <= 1
 R536: x5_8_ + x17_8_ <= 1
 R537: x5_9_ + x17_9_ <= 1
 R538: x9_0_ + x17_0_ <= 1
 R539: x9_1_ + x17_1_ <= 1
 R540: x9_2_ + x17_2_ <= 1
 R541: x9_3_ + x17_3_ <= 1
 R542: x9_4_ + x17_4_ <= 1
 R543: x9_5_ + x17_5_ <= 1
 R544: x9_6_ + x17_6_ <= 1
 R545: x9_7_ + x17_7_ <= 1
 R546: x9_8_ + x17_8_ <= 1
 R547: x9_9_ + x17_9_ <= 1
 R548: x0_6_ + x18_6_ <= 1
 R549: x0_7_ + x18_7_ <= 1
 R550: x0_8_ + x18_8_ <= 1
 R551: x0_9_ + x18_9_ <= 1
 R552: x1_6_ + x18_6_ <= 1
 R553: x1_7_ + x18_7_ <= 1
 R554: x1_8_ + x18_8_ <= 1
 R555: x1_9_ + x18_9_ <= 1
 R556: x3_6_ + x18_6_ <= 1
 R557: x3_7_ + x18_7_ <= 1
 R558: x3_8_ + x18_8_ <= 1
 R559: x3_9_ + x18_9_ <= 1
 R560: x5_6_ + x18_6_ <= 1
 R561: x5_7_ + x18_7_ <= 1
 R562: x5_8_ + x18_8_ <= 1
 R563: x5_9_ + x18_9_ <= 1
 R564: x6_6_ + x18_6_ <= 1
 R565: x6_7_ + x18_7_ <= 1
 R566: x6_8_ + x18_8_ <= 1
 R567: x6_9_ + x18_9_ <= 1
 R568: x7_6_ + x18_6_ <= 1
 R569: x7_7_ + x18_7_ <= 1
 R570: x7_8_ + x18_8_ <= 1
 R571: x7_9_ + x18_9_ <= 1
 R572: x9_6_ + x18_6_ <= 1
 R573: x9_7_ + x18_7_ <= 1
 R574: x9_8_ + x18_8_ <= 1
 R575: x9_9_ + x18_9_ <= 1
 R576: x11_6_ + x18_6_ <= 1
 R577: x11_7_ + x18_7_ <= 1
 R578: x11_8_ + x18_8_ <= 1
 R579: x11_9_ + x18_9_ <= 1
 R580: x13_6_ + x18_6_ <= 1
 R581: x13_7_ + x18_7_ <= 1
 R582: x13_8_ + x18_8_ <= 1
 R583: x13_9_ + x18_9_ <= 1
 R584: x15_6_ + x18_6_ <= 1
 R585: x15_7_ + x18_7_ <= 1
 R586: x15_8_ + x18_8_ <= 1
 R587: x15_9_ + x18_9_ <= 1
 R588: x0_6_ + x19_6_ <= 1
 R589: x0_7_ + x19_7_ <= 1
 R590: x0_8_ + x19_8_ <= 1
 R591: x0_9_ + x19_9_ <= 1
 R592: x6_6_ + x19_6_ <= 1
 R593: x6_7_ + x19_7_ <= 1
 R594: x6_8_ + x19_8_ <= 1
 R595: x6_9_ + x19_9_ <= 1
 R596: x13_6_ + x19_6_ <= 1
 R597: x13_7_ + x19_7_ <= 1
 R598: x13_8_ + x19_8_ <= 1
 R599: x13_9_ + x19_9_ <= 1
 R600: x14_6_ + x19_6_ <= 1
 R601: x14_7_ + x19_7_ <= 1
 R602: x14_8_ + x19_8_ <= 1
 R603: x14_9_ + x19_9_ <= 1
 R604: <= 1
Bounds
Binaries
 x0_0_ x0_1_ x0_2_ x0_3_ x0_4_ x0_5_ x0_6_ x0_7_ x0_8_ x0_9_ x0_n_ x1_6_
 x1_7_ x1_8_ x1_9_ x1_n_ x2_7_ x2_8_ x2_9_ x2_n_ x3_6_ x3_7_ x3_8_ x3_9_
 x3_n_ x4_0_ x4_1_ x4_2_ x4_3_ x4_4_ x4_5_ x4_6_ x4_7_ x4_8_ x4_9_ x4_n_
 x5_0_ x5_1_ x5_2_ x5_3_ x5_4_ x5_5_ x5_6_ x5_7_ x5_8_ x5_9_ x5_n_ x6_0_
 x6_1_ x6_2_ x6_3_ x6_4_ x6_5_ x6_6_ x6_7_ x6_8_ x6_9_ x6_n_ x7_6_ x7_7_
 x7_8_ x7_9_ x7_n_ x8_6_ x8_7_ x8_8_ x8_9_ x8_n_ x9_0_ x9_1_ x9_2_ x9_3_
 x9_4_ x9_5_ x9_6_ x9_7_ x9_8_ x9_9_ x9_n_ x10_7_ x10_8_ x10_9_ x10_n_
 x11_0_ x11_1_ x11_2_ x11_3_ x11_4_ x11_5_ x11_6_ x11_7_ x11_8_ x11_9_
 x11_n_ x12_6_ x12_7_ x12_8_ x12_9_ x12_n_ x13_6_ x13_7_ x13_8_ x13_9_
 x13_n_ x14_0_ x14_1_ x14_2_ x14_3_ x14_4_ x14_5_ x14_6_ x14_7_ x14_8_
 x14_9_ x14_n_ x15_6_ x15_7_ x15_8_ x15_9_ x15_n_ x16_7_ x16_8_ x16_9_
 x16_n_ x17_0_ x17_1_ x17_2_ x17_3_ x17_4_ x17_5_ x17_6_ x17_7_ x17_8_
 x17_9_ x17_n_ x18_6_ x18_7_ x18_8_ x18_9_ x18_n_ x19_6_ x19_7_ x19_8_
 x19_9_ x19_n_
End
